r = [
0,31,14,128,24,107,23,24,86,26,116,0
];
p = [
0,17,18,21,11,8,9,30,18,16,5,0
];
e = [
0,17,6,20,17,15,12,19,19,6,17,0
];
d = [
0,48,32,149,35,118,40,54,106,42,124,151
];
d_bar = [
0,50,34,151,36,119,41,57,108,44,125,151
];
w = [
0,8.5,3,10,17,15,12,6.333333333,9.5,3,17,0
];
